c Random 3-CNF over 20 variables and 80 clauses
c Generated with `cnfgen`
c (C) 2012-2016 Massimo Lauria <lauria.massimo@gmail.com>
c https://massimolauria.github.io/cnfgen
c
c COMMAND LINE: cnfgen --output tmp-3-20-80.dimacs --output-format dimacs randkcnf 3 20 80
c
c sdimacs generated by gen-sdimacs
c
p cnf 20 80
r 0.5 1 2 3 4 5 6 7 8 9 10 0
e  11 12 13 14 15 16 17 18 19 20 0
1 8 -13 0
6 9 18 0
5 11 19 0
-6 16 -20 0
11 17 -19 0
4 5 -19 0
-2 11 -17 0
-1 -6 12 0
-6 -8 -11 0
11 19 20 0
-1 -5 11 0
13 16 -18 0
-4 -6 11 0
-1 5 11 0
-13 16 19 0
-5 -15 18 0
-2 7 11 0
-4 7 10 0
9 13 -19 0
1 5 9 0
-1 2 -16 0
-3 7 -9 0
-3 -7 -20 0
9 -10 14 0
-2 -3 -8 0
-13 17 -19 0
-15 -17 20 0
-13 16 -17 0
-16 -18 20 0
1 -12 20 0
-5 15 -19 0
-1 -7 20 0
2 14 -16 0
-5 -15 -18 0
-9 -12 -14 0
7 -8 14 0
-2 7 18 0
-2 -7 -15 0
-2 7 -20 0
10 -15 20 0
-1 -9 15 0
-8 13 17 0
2 -13 -20 0
-2 -18 -19 0
-2 -3 -15 0
-4 7 18 0
-3 -8 -12 0
-10 16 -18 0
6 7 17 0
-7 -12 -19 0
-6 -9 -12 0
-11 19 20 0
-3 8 12 0
-2 14 -15 0
-1 -6 7 0
-12 -13 -20 0
10 -17 20 0
3 -12 17 0
6 -17 18 0
3 17 -18 0
7 8 -12 0
9 11 -19 0
-8 11 -16 0
-7 -14 17 0
5 -14 16 0
17 -18 19 0
3 -14 16 0
11 14 19 0
2 -5 8 0
6 -8 16 0
-2 12 17 0
5 11 -18 0
13 -15 -18 0
8 -13 -18 0
-1 8 12 0
-2 8 -18 0
-6 -12 -16 0
-1 -3 6 0
5 18 -19 0
8 -13 14 0
